NAME: cluster_8
TYPE: TSP
DIMENSION: 9
EDGE_WEIGHT_TYPE: EUC_2D
NODE_COORD_SECTION
1 12000.00 16000.00
2 1040.07 3820.70
3 19328.73 2122.33
4 15331.73 9685.08
5 6787.55 3237.77
6 2591.28 2268.72
7 17487.12 2012.62
8 12188.47 7592.57
9 18049.08 1588.17
EOF
